p cnf 200 2000
1 2 3 4 5 0
6 7 8 9 10 0
11 12 13 14 15 0
16 17 18 19 20 0
21 22 23 24 25 0
26 27 28 29 30 0
31 32 33 34 35 0
36 37 38 39 40 0
41 42 43 44 45 0
46 47 48 49 50 0
51 52 53 54 55 0
56 57 58 59 60 0
61 62 63 64 65 0
66 67 68 69 70 0
71 72 73 74 75 0
76 77 78 79 80 0
81 82 83 84 85 0
86 87 88 89 90 0
91 92 93 94 95 0
96 97 98 99 100 0
101 102 103 104 105 0
106 107 108 109 110 0
111 112 113 114 115 0
116 117 118 119 120 0
121 122 123 124 125 0
126 127 128 129 130 0
131 132 133 134 135 0
136 137 138 139 140 0
141 142 143 144 145 0
146 147 148 149 150 0
151 152 153 154 155 0
156 157 158 159 160 0
161 162 163 164 165 0
166 167 168 169 170 0
171 172 173 174 175 0
176 177 178 179 180 0
181 182 183 184 185 0
186 187 188 189 190 0
191 192 193 194 195 0
196 197 198 199 200 0
-1 -2 0
-1 -3 0
-1 -4 0
-1 -5 0
-2 -3 0
-2 -4 0
-2 -5 0
-3 -4 0
-3 -5 0
-4 -5 0
-6 -7 0
-6 -8 0
-6 -9 0
-6 -10 0
-7 -8 0
-7 -9 0
-7 -10 0
-8 -9 0
-8 -10 0
-9 -10 0
-11 -12 0
-11 -13 0
-11 -14 0
-11 -15 0
-12 -13 0
-12 -14 0
-12 -15 0
-13 -14 0
-13 -15 0
-14 -15 0
-16 -17 0
-16 -18 0
-16 -19 0
-16 -20 0
-17 -18 0
-17 -19 0
-17 -20 0
-18 -19 0
-18 -20 0
-19 -20 0
-21 -22 0
-21 -23 0
-21 -24 0
-21 -25 0
-22 -23 0
-22 -24 0
-22 -25 0
-23 -24 0
-23 -25 0
-24 -25 0
-26 -27 0
-26 -28 0
-26 -29 0
-26 -30 0
-27 -28 0
-27 -29 0
-27 -30 0
-28 -29 0
-28 -30 0
-29 -30 0
-31 -32 0
-31 -33 0
-31 -34 0
-31 -35 0
-32 -33 0
-32 -34 0
-32 -35 0
-33 -34 0
-33 -35 0
-34 -35 0
-36 -37 0
-36 -38 0
-36 -39 0
-36 -40 0
-37 -38 0
-37 -39 0
-37 -40 0
-38 -39 0
-38 -40 0
-39 -40 0
-41 -42 0
-41 -43 0
-41 -44 0
-41 -45 0
-42 -43 0
-42 -44 0
-42 -45 0
-43 -44 0
-43 -45 0
-44 -45 0
-46 -47 0
-46 -48 0
-46 -49 0
-46 -50 0
-47 -48 0
-47 -49 0
-47 -50 0
-48 -49 0
-48 -50 0
-49 -50 0
-51 -52 0
-51 -53 0
-51 -54 0
-51 -55 0
-52 -53 0
-52 -54 0
-52 -55 0
-53 -54 0
-53 -55 0
-54 -55 0
-56 -57 0
-56 -58 0
-56 -59 0
-56 -60 0
-57 -58 0
-57 -59 0
-57 -60 0
-58 -59 0
-58 -60 0
-59 -60 0
-61 -62 0
-61 -63 0
-61 -64 0
-61 -65 0
-62 -63 0
-62 -64 0
-62 -65 0
-63 -64 0
-63 -65 0
-64 -65 0
-66 -67 0
-66 -68 0
-66 -69 0
-66 -70 0
-67 -68 0
-67 -69 0
-67 -70 0
-68 -69 0
-68 -70 0
-69 -70 0
-71 -72 0
-71 -73 0
-71 -74 0
-71 -75 0
-72 -73 0
-72 -74 0
-72 -75 0
-73 -74 0
-73 -75 0
-74 -75 0
-76 -77 0
-76 -78 0
-76 -79 0
-76 -80 0
-77 -78 0
-77 -79 0
-77 -80 0
-78 -79 0
-78 -80 0
-79 -80 0
-81 -82 0
-81 -83 0
-81 -84 0
-81 -85 0
-82 -83 0
-82 -84 0
-82 -85 0
-83 -84 0
-83 -85 0
-84 -85 0
-86 -87 0
-86 -88 0
-86 -89 0
-86 -90 0
-87 -88 0
-87 -89 0
-87 -90 0
-88 -89 0
-88 -90 0
-89 -90 0
-91 -92 0
-91 -93 0
-91 -94 0
-91 -95 0
-92 -93 0
-92 -94 0
-92 -95 0
-93 -94 0
-93 -95 0
-94 -95 0
-96 -97 0
-96 -98 0
-96 -99 0
-96 -100 0
-97 -98 0
-97 -99 0
-97 -100 0
-98 -99 0
-98 -100 0
-99 -100 0
-101 -102 0
-101 -103 0
-101 -104 0
-101 -105 0
-102 -103 0
-102 -104 0
-102 -105 0
-103 -104 0
-103 -105 0
-104 -105 0
-106 -107 0
-106 -108 0
-106 -109 0
-106 -110 0
-107 -108 0
-107 -109 0
-107 -110 0
-108 -109 0
-108 -110 0
-109 -110 0
-111 -112 0
-111 -113 0
-111 -114 0
-111 -115 0
-112 -113 0
-112 -114 0
-112 -115 0
-113 -114 0
-113 -115 0
-114 -115 0
-116 -117 0
-116 -118 0
-116 -119 0
-116 -120 0
-117 -118 0
-117 -119 0
-117 -120 0
-118 -119 0
-118 -120 0
-119 -120 0
-121 -122 0
-121 -123 0
-121 -124 0
-121 -125 0
-122 -123 0
-122 -124 0
-122 -125 0
-123 -124 0
-123 -125 0
-124 -125 0
-126 -127 0
-126 -128 0
-126 -129 0
-126 -130 0
-127 -128 0
-127 -129 0
-127 -130 0
-128 -129 0
-128 -130 0
-129 -130 0
-131 -132 0
-131 -133 0
-131 -134 0
-131 -135 0
-132 -133 0
-132 -134 0
-132 -135 0
-133 -134 0
-133 -135 0
-134 -135 0
-136 -137 0
-136 -138 0
-136 -139 0
-136 -140 0
-137 -138 0
-137 -139 0
-137 -140 0
-138 -139 0
-138 -140 0
-139 -140 0
-141 -142 0
-141 -143 0
-141 -144 0
-141 -145 0
-142 -143 0
-142 -144 0
-142 -145 0
-143 -144 0
-143 -145 0
-144 -145 0
-146 -147 0
-146 -148 0
-146 -149 0
-146 -150 0
-147 -148 0
-147 -149 0
-147 -150 0
-148 -149 0
-148 -150 0
-149 -150 0
-151 -152 0
-151 -153 0
-151 -154 0
-151 -155 0
-152 -153 0
-152 -154 0
-152 -155 0
-153 -154 0
-153 -155 0
-154 -155 0
-156 -157 0
-156 -158 0
-156 -159 0
-156 -160 0
-157 -158 0
-157 -159 0
-157 -160 0
-158 -159 0
-158 -160 0
-159 -160 0
-161 -162 0
-161 -163 0
-161 -164 0
-161 -165 0
-162 -163 0
-162 -164 0
-162 -165 0
-163 -164 0
-163 -165 0
-164 -165 0
-166 -167 0
-166 -168 0
-166 -169 0
-166 -170 0
-167 -168 0
-167 -169 0
-167 -170 0
-168 -169 0
-168 -170 0
-169 -170 0
-171 -172 0
-171 -173 0
-171 -174 0
-171 -175 0
-172 -173 0
-172 -174 0
-172 -175 0
-173 -174 0
-173 -175 0
-174 -175 0
-176 -177 0
-176 -178 0
-176 -179 0
-176 -180 0
-177 -178 0
-177 -179 0
-177 -180 0
-178 -179 0
-178 -180 0
-179 -180 0
-181 -182 0
-181 -183 0
-181 -184 0
-181 -185 0
-182 -183 0
-182 -184 0
-182 -185 0
-183 -184 0
-183 -185 0
-184 -185 0
-186 -187 0
-186 -188 0
-186 -189 0
-186 -190 0
-187 -188 0
-187 -189 0
-187 -190 0
-188 -189 0
-188 -190 0
-189 -190 0
-191 -192 0
-191 -193 0
-191 -194 0
-191 -195 0
-192 -193 0
-192 -194 0
-192 -195 0
-193 -194 0
-193 -195 0
-194 -195 0
-196 -197 0
-196 -198 0
-196 -199 0
-196 -200 0
-197 -198 0
-197 -199 0
-197 -200 0
-198 -199 0
-198 -200 0
-199 -200 0
-1 -6 0
-2 -7 0
-3 -8 0
-4 -9 0
-5 -10 0
-1 -31 0
-2 -32 0
-3 -33 0
-4 -34 0
-5 -35 0
-1 -46 0
-2 -47 0
-3 -48 0
-4 -49 0
-5 -50 0
-1 -56 0
-2 -57 0
-3 -58 0
-4 -59 0
-5 -60 0
-1 -76 0
-2 -77 0
-3 -78 0
-4 -79 0
-5 -80 0
-1 -101 0
-2 -102 0
-3 -103 0
-4 -104 0
-5 -105 0
-1 -106 0
-2 -107 0
-3 -108 0
-4 -109 0
-5 -110 0
-1 -121 0
-2 -122 0
-3 -123 0
-4 -124 0
-5 -125 0
-1 -126 0
-2 -127 0
-3 -128 0
-4 -129 0
-5 -130 0
-1 -136 0
-2 -137 0
-3 -138 0
-4 -139 0
-5 -140 0
-1 -141 0
-2 -142 0
-3 -143 0
-4 -144 0
-5 -145 0
-1 -146 0
-2 -147 0
-3 -148 0
-4 -149 0
-5 -150 0
-1 -156 0
-2 -157 0
-3 -158 0
-4 -159 0
-5 -160 0
-1 -181 0
-2 -182 0
-3 -183 0
-4 -184 0
-5 -185 0
-1 -186 0
-2 -187 0
-3 -188 0
-4 -189 0
-5 -190 0
-1 -196 0
-2 -197 0
-3 -198 0
-4 -199 0
-5 -200 0
-6 -21 0
-7 -22 0
-8 -23 0
-9 -24 0
-10 -25 0
-6 -26 0
-7 -27 0
-8 -28 0
-9 -29 0
-10 -30 0
-6 -31 0
-7 -32 0
-8 -33 0
-9 -34 0
-10 -35 0
-6 -36 0
-7 -37 0
-8 -38 0
-9 -39 0
-10 -40 0
-6 -46 0
-7 -47 0
-8 -48 0
-9 -49 0
-10 -50 0
-6 -56 0
-7 -57 0
-8 -58 0
-9 -59 0
-10 -60 0
-6 -66 0
-7 -67 0
-8 -68 0
-9 -69 0
-10 -70 0
-6 -91 0
-7 -92 0
-8 -93 0
-9 -94 0
-10 -95 0
-6 -101 0
-7 -102 0
-8 -103 0
-9 -104 0
-10 -105 0
-6 -116 0
-7 -117 0
-8 -118 0
-9 -119 0
-10 -120 0
-6 -126 0
-7 -127 0
-8 -128 0
-9 -129 0
-10 -130 0
-6 -151 0
-7 -152 0
-8 -153 0
-9 -154 0
-10 -155 0
-6 -171 0
-7 -172 0
-8 -173 0
-9 -174 0
-10 -175 0
-6 -176 0
-7 -177 0
-8 -178 0
-9 -179 0
-10 -180 0
-6 -186 0
-7 -187 0
-8 -188 0
-9 -189 0
-10 -190 0
-6 -191 0
-7 -192 0
-8 -193 0
-9 -194 0
-10 -195 0
-11 -41 0
-12 -42 0
-13 -43 0
-14 -44 0
-15 -45 0
-11 -66 0
-12 -67 0
-13 -68 0
-14 -69 0
-15 -70 0
-11 -76 0
-12 -77 0
-13 -78 0
-14 -79 0
-15 -80 0
-11 -91 0
-12 -92 0
-13 -93 0
-14 -94 0
-15 -95 0
-11 -111 0
-12 -112 0
-13 -113 0
-14 -114 0
-15 -115 0
-11 -121 0
-12 -122 0
-13 -123 0
-14 -124 0
-15 -125 0
-11 -146 0
-12 -147 0
-13 -148 0
-14 -149 0
-15 -150 0
-11 -151 0
-12 -152 0
-13 -153 0
-14 -154 0
-15 -155 0
-11 -156 0
-12 -157 0
-13 -158 0
-14 -159 0
-15 -160 0
-11 -161 0
-12 -162 0
-13 -163 0
-14 -164 0
-15 -165 0
-11 -166 0
-12 -167 0
-13 -168 0
-14 -169 0
-15 -170 0
-11 -176 0
-12 -177 0
-13 -178 0
-14 -179 0
-15 -180 0
-11 -186 0
-12 -187 0
-13 -188 0
-14 -189 0
-15 -190 0
-11 -191 0
-12 -192 0
-13 -193 0
-14 -194 0
-15 -195 0
-11 -196 0
-12 -197 0
-13 -198 0
-14 -199 0
-15 -200 0
-16 -56 0
-17 -57 0
-18 -58 0
-19 -59 0
-20 -60 0
-16 -61 0
-17 -62 0
-18 -63 0
-19 -64 0
-20 -65 0
-16 -66 0
-17 -67 0
-18 -68 0
-19 -69 0
-20 -70 0
-16 -76 0
-17 -77 0
-18 -78 0
-19 -79 0
-20 -80 0
-16 -81 0
-17 -82 0
-18 -83 0
-19 -84 0
-20 -85 0
-16 -91 0
-17 -92 0
-18 -93 0
-19 -94 0
-20 -95 0
-16 -96 0
-17 -97 0
-18 -98 0
-19 -99 0
-20 -100 0
-16 -106 0
-17 -107 0
-18 -108 0
-19 -109 0
-20 -110 0
-16 -141 0
-17 -142 0
-18 -143 0
-19 -144 0
-20 -145 0
-16 -146 0
-17 -147 0
-18 -148 0
-19 -149 0
-20 -150 0
-16 -171 0
-17 -172 0
-18 -173 0
-19 -174 0
-20 -175 0
-16 -176 0
-17 -177 0
-18 -178 0
-19 -179 0
-20 -180 0
-16 -191 0
-17 -192 0
-18 -193 0
-19 -194 0
-20 -195 0
-16 -196 0
-17 -197 0
-18 -198 0
-19 -199 0
-20 -200 0
-21 -36 0
-22 -37 0
-23 -38 0
-24 -39 0
-25 -40 0
-21 -46 0
-22 -47 0
-23 -48 0
-24 -49 0
-25 -50 0
-21 -51 0
-22 -52 0
-23 -53 0
-24 -54 0
-25 -55 0
-21 -66 0
-22 -67 0
-23 -68 0
-24 -69 0
-25 -70 0
-21 -71 0
-22 -72 0
-23 -73 0
-24 -74 0
-25 -75 0
-21 -76 0
-22 -77 0
-23 -78 0
-24 -79 0
-25 -80 0
-21 -81 0
-22 -82 0
-23 -83 0
-24 -84 0
-25 -85 0
-21 -116 0
-22 -117 0
-23 -118 0
-24 -119 0
-25 -120 0
-21 -126 0
-22 -127 0
-23 -128 0
-24 -129 0
-25 -130 0
-21 -141 0
-22 -142 0
-23 -143 0
-24 -144 0
-25 -145 0
-21 -146 0
-22 -147 0
-23 -148 0
-24 -149 0
-25 -150 0
-21 -151 0
-22 -152 0
-23 -153 0
-24 -154 0
-25 -155 0
-21 -166 0
-22 -167 0
-23 -168 0
-24 -169 0
-25 -170 0
-21 -181 0
-22 -182 0
-23 -183 0
-24 -184 0
-25 -185 0
-21 -186 0
-22 -187 0
-23 -188 0
-24 -189 0
-25 -190 0
-26 -31 0
-27 -32 0
-28 -33 0
-29 -34 0
-30 -35 0
-26 -61 0
-27 -62 0
-28 -63 0
-29 -64 0
-30 -65 0
-26 -66 0
-27 -67 0
-28 -68 0
-29 -69 0
-30 -70 0
-26 -86 0
-27 -87 0
-28 -88 0
-29 -89 0
-30 -90 0
-26 -91 0
-27 -92 0
-28 -93 0
-29 -94 0
-30 -95 0
-26 -101 0
-27 -102 0
-28 -103 0
-29 -104 0
-30 -105 0
-26 -106 0
-27 -107 0
-28 -108 0
-29 -109 0
-30 -110 0
-26 -116 0
-27 -117 0
-28 -118 0
-29 -119 0
-30 -120 0
-26 -121 0
-27 -122 0
-28 -123 0
-29 -124 0
-30 -125 0
-26 -161 0
-27 -162 0
-28 -163 0
-29 -164 0
-30 -165 0
-26 -166 0
-27 -167 0
-28 -168 0
-29 -169 0
-30 -170 0
-26 -176 0
-27 -177 0
-28 -178 0
-29 -179 0
-30 -180 0
-26 -186 0
-27 -187 0
-28 -188 0
-29 -189 0
-30 -190 0
-26 -191 0
-27 -192 0
-28 -193 0
-29 -194 0
-30 -195 0
-26 -196 0
-27 -197 0
-28 -198 0
-29 -199 0
-30 -200 0
-31 -46 0
-32 -47 0
-33 -48 0
-34 -49 0
-35 -50 0
-31 -66 0
-32 -67 0
-33 -68 0
-34 -69 0
-35 -70 0
-31 -81 0
-32 -82 0
-33 -83 0
-34 -84 0
-35 -85 0
-31 -101 0
-32 -102 0
-33 -103 0
-34 -104 0
-35 -105 0
-31 -111 0
-32 -112 0
-33 -113 0
-34 -114 0
-35 -115 0
-31 -126 0
-32 -127 0
-33 -128 0
-34 -129 0
-35 -130 0
-31 -156 0
-32 -157 0
-33 -158 0
-34 -159 0
-35 -160 0
-31 -171 0
-32 -172 0
-33 -173 0
-34 -174 0
-35 -175 0
-31 -181 0
-32 -182 0
-33 -183 0
-34 -184 0
-35 -185 0
-36 -61 0
-37 -62 0
-38 -63 0
-39 -64 0
-40 -65 0
-36 -71 0
-37 -72 0
-38 -73 0
-39 -74 0
-40 -75 0
-36 -76 0
-37 -77 0
-38 -78 0
-39 -79 0
-40 -80 0
-36 -101 0
-37 -102 0
-38 -103 0
-39 -104 0
-40 -105 0
-36 -106 0
-37 -107 0
-38 -108 0
-39 -109 0
-40 -110 0
-36 -111 0
-37 -112 0
-38 -113 0
-39 -114 0
-40 -115 0
-36 -131 0
-37 -132 0
-38 -133 0
-39 -134 0
-40 -135 0
-36 -136 0
-37 -137 0
-38 -138 0
-39 -139 0
-40 -140 0
-36 -156 0
-37 -157 0
-38 -158 0
-39 -159 0
-40 -160 0
-36 -161 0
-37 -162 0
-38 -163 0
-39 -164 0
-40 -165 0
-36 -181 0
-37 -182 0
-38 -183 0
-39 -184 0
-40 -185 0
-36 -186 0
-37 -187 0
-38 -188 0
-39 -189 0
-40 -190 0
-36 -191 0
-37 -192 0
-38 -193 0
-39 -194 0
-40 -195 0
-41 -56 0
-42 -57 0
-43 -58 0
-44 -59 0
-45 -60 0
-41 -61 0
-42 -62 0
-43 -63 0
-44 -64 0
-45 -65 0
-41 -96 0
-42 -97 0
-43 -98 0
-44 -99 0
-45 -100 0
-41 -126 0
-42 -127 0
-43 -128 0
-44 -129 0
-45 -130 0
-41 -141 0
-42 -142 0
-43 -143 0
-44 -144 0
-45 -145 0
-41 -146 0
-42 -147 0
-43 -148 0
-44 -149 0
-45 -150 0
-41 -151 0
-42 -152 0
-43 -153 0
-44 -154 0
-45 -155 0
-41 -166 0
-42 -167 0
-43 -168 0
-44 -169 0
-45 -170 0
-41 -171 0
-42 -172 0
-43 -173 0
-44 -174 0
-45 -175 0
-41 -176 0
-42 -177 0
-43 -178 0
-44 -179 0
-45 -180 0
-41 -181 0
-42 -182 0
-43 -183 0
-44 -184 0
-45 -185 0
-46 -91 0
-47 -92 0
-48 -93 0
-49 -94 0
-50 -95 0
-46 -101 0
-47 -102 0
-48 -103 0
-49 -104 0
-50 -105 0
-46 -106 0
-47 -107 0
-48 -108 0
-49 -109 0
-50 -110 0
-46 -126 0
-47 -127 0
-48 -128 0
-49 -129 0
-50 -130 0
-46 -141 0
-47 -142 0
-48 -143 0
-49 -144 0
-50 -145 0
-46 -146 0
-47 -147 0
-48 -148 0
-49 -149 0
-50 -150 0
-46 -151 0
-47 -152 0
-48 -153 0
-49 -154 0
-50 -155 0
-46 -161 0
-47 -162 0
-48 -163 0
-49 -164 0
-50 -165 0
-46 -171 0
-47 -172 0
-48 -173 0
-49 -174 0
-50 -175 0
-46 -176 0
-47 -177 0
-48 -178 0
-49 -179 0
-50 -180 0
-46 -181 0
-47 -182 0
-48 -183 0
-49 -184 0
-50 -185 0
-46 -196 0
-47 -197 0
-48 -198 0
-49 -199 0
-50 -200 0
-51 -61 0
-52 -62 0
-53 -63 0
-54 -64 0
-55 -65 0
-51 -91 0
-52 -92 0
-53 -93 0
-54 -94 0
-55 -95 0
-51 -106 0
-52 -107 0
-53 -108 0
-54 -109 0
-55 -110 0
-51 -111 0
-52 -112 0
-53 -113 0
-54 -114 0
-55 -115 0
-51 -116 0
-52 -117 0
-53 -118 0
-54 -119 0
-55 -120 0
-51 -126 0
-52 -127 0
-53 -128 0
-54 -129 0
-55 -130 0
-51 -136 0
-52 -137 0
-53 -138 0
-54 -139 0
-55 -140 0
-51 -146 0
-52 -147 0
-53 -148 0
-54 -149 0
-55 -150 0
-51 -151 0
-52 -152 0
-53 -153 0
-54 -154 0
-55 -155 0
-51 -161 0
-52 -162 0
-53 -163 0
-54 -164 0
-55 -165 0
-51 -166 0
-52 -167 0
-53 -168 0
-54 -169 0
-55 -170 0
-51 -176 0
-52 -177 0
-53 -178 0
-54 -179 0
-55 -180 0
-51 -181 0
-52 -182 0
-53 -183 0
-54 -184 0
-55 -185 0
-56 -66 0
-57 -67 0
-58 -68 0
-59 -69 0
-60 -70 0
-56 -71 0
-57 -72 0
-58 -73 0
-59 -74 0
-60 -75 0
-56 -76 0
-57 -77 0
-58 -78 0
-59 -79 0
-60 -80 0
-56 -91 0
-57 -92 0
-58 -93 0
-59 -94 0
-60 -95 0
-56 -116 0
-57 -117 0
-58 -118 0
-59 -119 0
-60 -120 0
-56 -121 0
-57 -122 0
-58 -123 0
-59 -124 0
-60 -125 0
-56 -131 0
-57 -132 0
-58 -133 0
-59 -134 0
-60 -135 0
-56 -161 0
-57 -162 0
-58 -163 0
-59 -164 0
-60 -165 0
-56 -171 0
-57 -172 0
-58 -173 0
-59 -174 0
-60 -175 0
-56 -186 0
-57 -187 0
-58 -188 0
-59 -189 0
-60 -190 0
-56 -191 0
-57 -192 0
-58 -193 0
-59 -194 0
-60 -195 0
-61 -71 0
-62 -72 0
-63 -73 0
-64 -74 0
-65 -75 0
-61 -91 0
-62 -92 0
-63 -93 0
-64 -94 0
-65 -95 0
-61 -96 0
-62 -97 0
-63 -98 0
-64 -99 0
-65 -100 0
-61 -111 0
-62 -112 0
-63 -113 0
-64 -114 0
-65 -115 0
-61 -116 0
-62 -117 0
-63 -118 0
-64 -119 0
-65 -120 0
-61 -121 0
-62 -122 0
-63 -123 0
-64 -124 0
-65 -125 0
-61 -136 0
-62 -137 0
-63 -138 0
-64 -139 0
-65 -140 0
-61 -171 0
-62 -172 0
-63 -173 0
-64 -174 0
-65 -175 0
-61 -186 0
-62 -187 0
-63 -188 0
-64 -189 0
-65 -190 0
-61 -196 0
-62 -197 0
-63 -198 0
-64 -199 0
-65 -200 0
-66 -71 0
-67 -72 0
-68 -73 0
-69 -74 0
-70 -75 0
-66 -96 0
-67 -97 0
-68 -98 0
-69 -99 0
-70 -100 0
-66 -101 0
-67 -102 0
-68 -103 0
-69 -104 0
-70 -105 0
-66 -116 0
-67 -117 0
-68 -118 0
-69 -119 0
-70 -120 0
-66 -136 0
-67 -137 0
-68 -138 0
-69 -139 0
-70 -140 0
-66 -141 0
-67 -142 0
-68 -143 0
-69 -144 0
-70 -145 0
-66 -166 0
-67 -167 0
-68 -168 0
-69 -169 0
-70 -170 0
-66 -171 0
-67 -172 0
-68 -173 0
-69 -174 0
-70 -175 0
-66 -181 0
-67 -182 0
-68 -183 0
-69 -184 0
-70 -185 0
-66 -186 0
-67 -187 0
-68 -188 0
-69 -189 0
-70 -190 0
-66 -191 0
-67 -192 0
-68 -193 0
-69 -194 0
-70 -195 0
-71 -86 0
-72 -87 0
-73 -88 0
-74 -89 0
-75 -90 0
-71 -96 0
-72 -97 0
-73 -98 0
-74 -99 0
-75 -100 0
-71 -116 0
-72 -117 0
-73 -118 0
-74 -119 0
-75 -120 0
-71 -121 0
-72 -122 0
-73 -123 0
-74 -124 0
-75 -125 0
-71 -126 0
-72 -127 0
-73 -128 0
-74 -129 0
-75 -130 0
-71 -141 0
-72 -142 0
-73 -143 0
-74 -144 0
-75 -145 0
-71 -146 0
-72 -147 0
-73 -148 0
-74 -149 0
-75 -150 0
-71 -151 0
-72 -152 0
-73 -153 0
-74 -154 0
-75 -155 0
-71 -166 0
-72 -167 0
-73 -168 0
-74 -169 0
-75 -170 0
-71 -176 0
-72 -177 0
-73 -178 0
-74 -179 0
-75 -180 0
-71 -181 0
-72 -182 0
-73 -183 0
-74 -184 0
-75 -185 0
-71 -186 0
-72 -187 0
-73 -188 0
-74 -189 0
-75 -190 0
-76 -86 0
-77 -87 0
-78 -88 0
-79 -89 0
-80 -90 0
-76 -91 0
-77 -92 0
-78 -93 0
-79 -94 0
-80 -95 0
-76 -96 0
-77 -97 0
-78 -98 0
-79 -99 0
-80 -100 0
-76 -101 0
-77 -102 0
-78 -103 0
-79 -104 0
-80 -105 0
-76 -111 0
-77 -112 0
-78 -113 0
-79 -114 0
-80 -115 0
-76 -126 0
-77 -127 0
-78 -128 0
-79 -129 0
-80 -130 0
-76 -141 0
-77 -142 0
-78 -143 0
-79 -144 0
-80 -145 0
-76 -146 0
-77 -147 0
-78 -148 0
-79 -149 0
-80 -150 0
-76 -161 0
-77 -162 0
-78 -163 0
-79 -164 0
-80 -165 0
-76 -166 0
-77 -167 0
-78 -168 0
-79 -169 0
-80 -170 0
-76 -176 0
-77 -177 0
-78 -178 0
-79 -179 0
-80 -180 0
-76 -186 0
-77 -187 0
-78 -188 0
-79 -189 0
-80 -190 0
-76 -196 0
-77 -197 0
-78 -198 0
-79 -199 0
-80 -200 0
-81 -106 0
-82 -107 0
-83 -108 0
-84 -109 0
-85 -110 0
-81 -131 0
-82 -132 0
-83 -133 0
-84 -134 0
-85 -135 0
-81 -136 0
-82 -137 0
-83 -138 0
-84 -139 0
-85 -140 0
-81 -141 0
-82 -142 0
-83 -143 0
-84 -144 0
-85 -145 0
-81 -146 0
-82 -147 0
-83 -148 0
-84 -149 0
-85 -150 0
-81 -166 0
-82 -167 0
-83 -168 0
-84 -169 0
-85 -170 0
-81 -191 0
-82 -192 0
-83 -193 0
-84 -194 0
-85 -195 0
-86 -116 0
-87 -117 0
-88 -118 0
-89 -119 0
-90 -120 0
-86 -131 0
-87 -132 0
-88 -133 0
-89 -134 0
-90 -135 0
-86 -141 0
-87 -142 0
-88 -143 0
-89 -144 0
-90 -145 0
-86 -191 0
-87 -192 0
-88 -193 0
-89 -194 0
-90 -195 0
-86 -196 0
-87 -197 0
-88 -198 0
-89 -199 0
-90 -200 0
-91 -106 0
-92 -107 0
-93 -108 0
-94 -109 0
-95 -110 0
-91 -121 0
-92 -122 0
-93 -123 0
-94 -124 0
-95 -125 0
-91 -131 0
-92 -132 0
-93 -133 0
-94 -134 0
-95 -135 0
-91 -141 0
-92 -142 0
-93 -143 0
-94 -144 0
-95 -145 0
-91 -146 0
-92 -147 0
-93 -148 0
-94 -149 0
-95 -150 0
-91 -151 0
-92 -152 0
-93 -153 0
-94 -154 0
-95 -155 0
-91 -161 0
-92 -162 0
-93 -163 0
-94 -164 0
-95 -165 0
-91 -166 0
-92 -167 0
-93 -168 0
-94 -169 0
-95 -170 0
-91 -171 0
-92 -172 0
-93 -173 0
-94 -174 0
-95 -175 0
-91 -186 0
-92 -187 0
-93 -188 0
-94 -189 0
-95 -190 0
-91 -191 0
-92 -192 0
-93 -193 0
-94 -194 0
-95 -195 0
-96 -116 0
-97 -117 0
-98 -118 0
-99 -119 0
-100 -120 0
-96 -121 0
-97 -122 0
-98 -123 0
-99 -124 0
-100 -125 0
-96 -136 0
-97 -137 0
-98 -138 0
-99 -139 0
-100 -140 0
-96 -141 0
-97 -142 0
-98 -143 0
-99 -144 0
-100 -145 0
-96 -156 0
-97 -157 0
-98 -158 0
-99 -159 0
-100 -160 0
-96 -176 0
-97 -177 0
-98 -178 0
-99 -179 0
-100 -180 0
-96 -181 0
-97 -182 0
-98 -183 0
-99 -184 0
-100 -185 0
-101 -106 0
-102 -107 0
-103 -108 0
-104 -109 0
-105 -110 0
-101 -111 0
-102 -112 0
-103 -113 0
-104 -114 0
-105 -115 0
-101 -116 0
-102 -117 0
-103 -118 0
-104 -119 0
-105 -120 0
-101 -121 0
-102 -122 0
-103 -123 0
-104 -124 0
-105 -125 0
-101 -131 0
-102 -132 0
-103 -133 0
-104 -134 0
-105 -135 0
-101 -136 0
-102 -137 0
-103 -138 0
-104 -139 0
-105 -140 0
-101 -141 0
-102 -142 0
-103 -143 0
-104 -144 0
-105 -145 0
-101 -151 0
-102 -152 0
-103 -153 0
-104 -154 0
-105 -155 0
-101 -186 0
-102 -187 0
-103 -188 0
-104 -189 0
-105 -190 0
-106 -131 0
-107 -132 0
-108 -133 0
-109 -134 0
-110 -135 0
-106 -146 0
-107 -147 0
-108 -148 0
-109 -149 0
-110 -150 0
-106 -151 0
-107 -152 0
-108 -153 0
-109 -154 0
-110 -155 0
-106 -156 0
-107 -157 0
-108 -158 0
-109 -159 0
-110 -160 0
-106 -166 0
-107 -167 0
-108 -168 0
-109 -169 0
-110 -170 0
-106 -171 0
-107 -172 0
-108 -173 0
-109 -174 0
-110 -175 0
-106 -196 0
-107 -197 0
-108 -198 0
-109 -199 0
-110 -200 0
-111 -116 0
-112 -117 0
-113 -118 0
-114 -119 0
-115 -120 0
-111 -121 0
-112 -122 0
-113 -123 0
-114 -124 0
-115 -125 0
-111 -126 0
-112 -127 0
-113 -128 0
-114 -129 0
-115 -130 0
-111 -166 0
-112 -167 0
-113 -168 0
-114 -169 0
-115 -170 0
-111 -186 0
-112 -187 0
-113 -188 0
-114 -189 0
-115 -190 0
-111 -196 0
-112 -197 0
-113 -198 0
-114 -199 0
-115 -200 0
-116 -126 0
-117 -127 0
-118 -128 0
-119 -129 0
-120 -130 0
-116 -161 0
-117 -162 0
-118 -163 0
-119 -164 0
-120 -165 0
-116 -171 0
-117 -172 0
-118 -173 0
-119 -174 0
-120 -175 0
-116 -186 0
-117 -187 0
-118 -188 0
-119 -189 0
-120 -190 0
-116 -196 0
-117 -197 0
-118 -198 0
-119 -199 0
-120 -200 0
-121 -131 0
-122 -132 0
-123 -133 0
-124 -134 0
-125 -135 0
-121 -136 0
-122 -137 0
-123 -138 0
-124 -139 0
-125 -140 0
-121 -146 0
-122 -147 0
-123 -148 0
-124 -149 0
-125 -150 0
-121 -151 0
-122 -152 0
-123 -153 0
-124 -154 0
-125 -155 0
-121 -156 0
-122 -157 0
-123 -158 0
-124 -159 0
-125 -160 0
-121 -166 0
-122 -167 0
-123 -168 0
-124 -169 0
-125 -170 0
-121 -171 0
-122 -172 0
-123 -173 0
-124 -174 0
-125 -175 0
-121 -176 0
-122 -177 0
-123 -178 0
-124 -179 0
-125 -180 0
-121 -181 0
-122 -182 0
-123 -183 0
-124 -184 0
-125 -185 0
-121 -186 0
-122 -187 0
-123 -188 0
-124 -189 0
-125 -190 0
-121 -196 0
-122 -197 0
-123 -198 0
-124 -199 0
-125 -200 0
-126 -136 0
-127 -137 0
-128 -138 0
-129 -139 0
-130 -140 0
-126 -156 0
-127 -157 0
-128 -158 0
-129 -159 0
-130 -160 0
-126 -161 0
-127 -162 0
-128 -163 0
-129 -164 0
-130 -165 0
-126 -171 0
-127 -172 0
-128 -173 0
-129 -174 0
-130 -175 0
-126 -191 0
-127 -192 0
-128 -193 0
-129 -194 0
-130 -195 0
-131 -141 0
-132 -142 0
-133 -143 0
-134 -144 0
-135 -145 0
-131 -146 0
-132 -147 0
-133 -148 0
-134 -149 0
-135 -150 0
-131 -156 0
-132 -157 0
-133 -158 0
-134 -159 0
-135 -160 0
-131 -166 0
-132 -167 0
-133 -168 0
-134 -169 0
-135 -170 0
-131 -171 0
-132 -172 0
-133 -173 0
-134 -174 0
-135 -175 0
-131 -186 0
-132 -187 0
-133 -188 0
-134 -189 0
-135 -190 0
-136 -141 0
-137 -142 0
-138 -143 0
-139 -144 0
-140 -145 0
-136 -151 0
-137 -152 0
-138 -153 0
-139 -154 0
-140 -155 0
-136 -156 0
-137 -157 0
-138 -158 0
-139 -159 0
-140 -160 0
-136 -166 0
-137 -167 0
-138 -168 0
-139 -169 0
-140 -170 0
-136 -171 0
-137 -172 0
-138 -173 0
-139 -174 0
-140 -175 0
-136 -181 0
-137 -182 0
-138 -183 0
-139 -184 0
-140 -185 0
-141 -151 0
-142 -152 0
-143 -153 0
-144 -154 0
-145 -155 0
-141 -161 0
-142 -162 0
-143 -163 0
-144 -164 0
-145 -165 0
-141 -171 0
-142 -172 0
-143 -173 0
-144 -174 0
-145 -175 0
-141 -186 0
-142 -187 0
-143 -188 0
-144 -189 0
-145 -190 0
-141 -191 0
-142 -192 0
-143 -193 0
-144 -194 0
-145 -195 0
-141 -196 0
-142 -197 0
-143 -198 0
-144 -199 0
-145 -200 0
-146 -156 0
-147 -157 0
-148 -158 0
-149 -159 0
-150 -160 0
-146 -186 0
-147 -187 0
-148 -188 0
-149 -189 0
-150 -190 0
-146 -196 0
-147 -197 0
-148 -198 0
-149 -199 0
-150 -200 0
-151 -161 0
-152 -162 0
-153 -163 0
-154 -164 0
-155 -165 0
-151 -166 0
-152 -167 0
-153 -168 0
-154 -169 0
-155 -170 0
-151 -171 0
-152 -172 0
-153 -173 0
-154 -174 0
-155 -175 0
-151 -181 0
-152 -182 0
-153 -183 0
-154 -184 0
-155 -185 0
-156 -161 0
-157 -162 0
-158 -163 0
-159 -164 0
-160 -165 0
-156 -171 0
-157 -172 0
-158 -173 0
-159 -174 0
-160 -175 0
-156 -176 0
-157 -177 0
-158 -178 0
-159 -179 0
-160 -180 0
-161 -181 0
-162 -182 0
-163 -183 0
-164 -184 0
-165 -185 0
-161 -191 0
-162 -192 0
-163 -193 0
-164 -194 0
-165 -195 0
-166 -176 0
-167 -177 0
-168 -178 0
-169 -179 0
-170 -180 0
-171 -181 0
-172 -182 0
-173 -183 0
-174 -184 0
-175 -185 0
-181 -196 0
-182 -197 0
-183 -198 0
-184 -199 0
-185 -200 0
